data/MCDM/NO_CORR/GEN_FROM_60/13_ITEMS_1000_GEN/K5013W18.KNP.mps
NAME          BLANK   
ROWS
 N  OBJROW
 L  R0000000
COLUMNS
    C0000000  OBJROW     -865.         R0000000  607.        
    C0000001  OBJROW     -638.         R0000000  940.        
    C0000002  OBJROW     -940.         R0000000  668.        
    C0000003  OBJROW     -520.         R0000000  70.         
    C0000004  OBJROW     -185.         R0000000  45.         
    C0000005  OBJROW     -672.         R0000000  140.        
    C0000006  OBJROW     -226.         R0000000  404.        
    C0000007  OBJROW     -965.         R0000000  999.        
    C0000008  OBJROW     -652.         R0000000  948.        
    C0000009  OBJROW     -502.         R0000000  251.        
    C0000010  OBJROW     -671.         R0000000  253.        
    C0000011  OBJROW     -271.         R0000000  341.        
    C0000012  OBJROW     -24.          R0000000  744.        
RHS
    RHS       R0000000  14132.      
BOUNDS
 BV BOUND     C0000000  1.          
 BV BOUND     C0000001  1.          
 BV BOUND     C0000002  1.          
 BV BOUND     C0000003  1.          
 BV BOUND     C0000004  1.          
 BV BOUND     C0000005  1.          
 BV BOUND     C0000006  1.          
 BV BOUND     C0000007  1.          
 BV BOUND     C0000008  1.          
 BV BOUND     C0000009  1.          
 BV BOUND     C0000010  1.          
 BV BOUND     C0000011  1.          
 BV BOUND     C0000012  1.          
ENDATA
