interdiction/MCDM/NO_CORR/GEN_FROM_60/13_ITEMS_1000_GEN/K5013W18.KNP.txt
N 13
M 14
LC 13
LC 14
LC 15
LC 16
LC 17
LC 18
LC 19
LC 20
LC 21
LC 22
LC 23
LC 24
LC 25
LR 1
LR 2
LR 3
LR 4
LR 5
LR 6
LR 7
LR 8
LR 9
LR 10
LR 11
LR 12
LR 13
LR 14
LO -865
LO -638
LO -940
LO -520
LO -185
LO -672
LO -226
LO -965
LO -652
LO -502
LO -671
LO -271
LO -24
OS 1
IC 861
IC 712
IC 650
IC 904
IC 83
IC 705
IC 346
IC 128
IC 169
IC 232
IC 338
IC 392
IC 389
IB 2955
